1 10 30
3417
  3.4  0.07  45.3 7012.0   0.0
 0.04 1869.9  14.5
 0.06 2795.5  21.6
 0.09 3802.3  29.4
 0.09 3769.2  29.2
 0.04 1707.7  13.2
 0.04 1769.2  13.7
 0.07 3021.2  23.4
 0.03 1433.9  11.1
 0.05 2343.9  18.2
 0.04 1933.8  15.0
 1337
 1185
  979
  931
  929
  588
  780
 1475
 1210
  835
 1228
 1469
  530
 1010
  642
  614
  833
 1459
 1169
  641
  751
 1304
  765
 1346
  548
  602
 1256
  919
 1386
  842
